data;

param w := 32;
param n := 27;
param min_h := 32;
param max_h := 47;

set BLOCKS := 1 2 3 4 5 6 7 8 9 10 11 12 13 14 15 16 17 18 19 20 21 22 23 24 25 26 27 ;

param:	width	height :=
	1	3	27
	2	3	25
	3	3	24
	4	4	18
	5	3	23
	6	3	22
	7	3	18
	8	3	15
	9	4	11
	10	3	14
	11	4	10
	12	3	13
	13	3	12
	14	3	11
	15	3	10
	16	4	7
	17	3	9
	18	3	8
	19	4	6
	20	3	7
	21	4	5
	22	3	6
	23	4	4
	24	3	5
	25	4	3
	26	3	4
	27	3	3;